p cnf 393 1322
1 0
-2 0
-3 0
-4 0
-5 0
-6 0
-7 0
-8 0
-9 0
-10 0
-11 0
12 13 14 15 0
-12 -13 0
-12 -14 0
-12 -15 0
-13 -14 0
-13 -15 0
-14 -15 0
16 -1 -17 0
1 -16 -17 0
-16 -1 17 0
1 16 17 0
-12 -17 0
1 -16 -18 0
16 -1 -18 0
18 -1 -16 0
18 1 16 0
-13 18 0
-14 18 0
-15 18 0
19 -2 -20 0
2 -19 -20 0
-19 -2 20 0
2 19 20 0
-12 -20 0
2 -21 -22 0
21 -2 -22 0
22 -2 -21 0
22 2 21 0
-13 22 0
-19 23 0
-21 23 0
-24 23 0
19 21 24 -23 0
2 -23 -25 0
-2 23 -25 0
-2 -23 25 0
2 23 25 0
-14 25 0
19 26 0
21 26 0
24 26 0
-19 -21 -24 -26 0
-2 26 -27 0
2 -26 -27 0
27 -26 -2 0
2 26 27 0
-15 -27 0
21 -28 -29 0
28 -21 -29 0
-21 -28 29 0
21 28 29 0
-12 -29 0
28 -24 -30 0
24 -28 -30 0
30 -28 -24 0
30 28 24 0
-13 30 0
-21 31 0
-24 31 0
21 24 -31 0
28 -31 -32 0
-28 31 -32 0
-28 -31 32 0
28 31 32 0
-14 32 0
21 33 0
24 33 0
-21 -24 -33 0
-28 33 -34 0
28 -33 -34 0
34 -33 -28 0
28 33 34 0
-15 -34 0
24 -35 -36 0
35 -24 -36 0
-24 -35 36 0
24 35 36 0
-12 -36 0
-21 35 -37 0
21 -35 -37 0
37 -35 -21 0
37 35 21 0
-13 37 0
35 -31 -38 0
-35 31 -38 0
-35 -31 38 0
35 31 38 0
-14 38 0
-35 33 -39 0
35 -33 -39 0
39 -33 -35 0
35 33 39 0
-15 -39 0
40 -3 -41 0
3 -40 -41 0
-40 -3 41 0
3 40 41 0
-12 -41 0
3 -42 -43 0
42 -3 -43 0
43 -3 -42 0
43 3 42 0
-13 43 0
-19 44 0
-21 44 0
-24 44 0
-40 44 0
-42 44 0
19 21 24 40 42 -44 0
3 -44 -45 0
-3 44 -45 0
-3 -44 45 0
3 44 45 0
-14 45 0
19 46 0
21 46 0
24 46 0
40 46 0
42 46 0
-47 0
-3 46 -48 0
3 -46 -48 0
48 -46 -3 0
3 46 48 0
-15 -48 0
42 -49 -50 0
49 -42 -50 0
-42 -49 50 0
42 49 50 0
-12 -50 0
-19 49 -51 0
19 -49 -51 0
51 -49 -19 0
51 49 19 0
-13 51 0
-19 52 0
-21 52 0
-24 52 0
-42 52 0
19 21 24 42 -52 0
49 -52 -53 0
-49 52 -53 0
-49 -52 53 0
49 52 53 0
-14 53 0
19 54 0
21 54 0
24 54 0
42 54 0
-55 0
-49 54 -56 0
49 -54 -56 0
56 -54 -49 0
49 54 56 0
-15 -56 0
57 -4 -58 0
4 -57 -58 0
-57 -4 58 0
4 57 58 0
-12 -58 0
4 -59 -60 0
59 -4 -60 0
60 -4 -59 0
60 4 59 0
-13 60 0
-57 61 0
-59 61 0
-62 61 0
-63 61 0
-64 61 0
-65 61 0
57 59 62 63 64 65 -61 0
4 -61 -66 0
-4 61 -66 0
-4 -61 66 0
4 61 66 0
-14 66 0
57 67 0
59 67 0
62 67 0
63 67 0
64 67 0
65 67 0
-68 0
-4 67 -69 0
4 -67 -69 0
69 -67 -4 0
4 67 69 0
-15 -69 0
59 -70 -71 0
70 -59 -71 0
-59 -70 71 0
59 70 71 0
-12 -71 0
70 -62 -72 0
62 -70 -72 0
72 -70 -62 0
72 70 62 0
-13 72 0
-59 73 0
-62 73 0
-63 73 0
-64 73 0
-65 73 0
59 62 63 64 65 -73 0
70 -73 -74 0
-70 73 -74 0
-70 -73 74 0
70 73 74 0
-14 74 0
59 75 0
62 75 0
63 75 0
64 75 0
65 75 0
-76 0
-70 75 -77 0
70 -75 -77 0
77 -75 -70 0
70 75 77 0
-15 -77 0
62 -78 -79 0
78 -62 -79 0
-62 -78 79 0
62 78 79 0
-12 -79 0
78 -63 -80 0
63 -78 -80 0
80 -78 -63 0
80 78 63 0
-13 80 0
-62 81 0
-63 81 0
-64 81 0
-65 81 0
62 63 64 65 -81 0
78 -81 -82 0
-78 81 -82 0
-78 -81 82 0
78 81 82 0
-14 82 0
62 83 0
63 83 0
64 83 0
65 83 0
-84 0
-78 83 -85 0
78 -83 -85 0
85 -83 -78 0
78 83 85 0
-15 -85 0
63 -86 -87 0
86 -63 -87 0
-63 -86 87 0
63 86 87 0
-12 -87 0
86 -64 -88 0
64 -86 -88 0
88 -86 -64 0
88 86 64 0
-13 88 0
86 -81 -89 0
-86 81 -89 0
-86 -81 89 0
86 81 89 0
-14 89 0
-86 83 -90 0
86 -83 -90 0
90 -83 -86 0
86 83 90 0
-15 -90 0
64 -91 -92 0
91 -64 -92 0
-64 -91 92 0
64 91 92 0
-12 -92 0
91 -65 -93 0
65 -91 -93 0
93 -91 -65 0
93 91 65 0
-13 93 0
-64 94 0
-65 94 0
-62 94 0
-63 94 0
64 65 62 63 -94 0
91 -94 -95 0
-91 94 -95 0
-91 -94 95 0
91 94 95 0
-14 95 0
64 96 0
65 96 0
62 96 0
63 96 0
-97 0
-91 96 -98 0
91 -96 -98 0
98 -96 -91 0
91 96 98 0
-15 -98 0
65 -99 -100 0
99 -65 -100 0
-65 -99 100 0
65 99 100 0
-12 -100 0
-62 99 -101 0
62 -99 -101 0
101 -99 -62 0
101 99 62 0
-13 101 0
99 -81 -102 0
-99 81 -102 0
-99 -81 102 0
99 81 102 0
-14 102 0
-99 83 -103 0
99 -83 -103 0
103 -83 -99 0
99 83 103 0
-15 -103 0
104 -5 -105 0
5 -104 -105 0
-104 -5 105 0
5 104 105 0
-12 -105 0
5 -106 -107 0
106 -5 -107 0
107 -5 -106 0
107 5 106 0
-13 107 0
-104 108 0
-106 108 0
-109 108 0
-110 108 0
-111 108 0
-112 108 0
113 0
5 -108 -114 0
-5 108 -114 0
-5 -108 114 0
5 108 114 0
-14 114 0
104 115 0
106 115 0
109 115 0
110 115 0
111 115 0
112 115 0
-116 0
-5 115 -117 0
5 -115 -117 0
117 -115 -5 0
5 115 117 0
-15 -117 0
106 -118 -119 0
118 -106 -119 0
-106 -118 119 0
106 118 119 0
-12 -119 0
118 -109 -120 0
109 -118 -120 0
120 -118 -109 0
120 118 109 0
-13 120 0
-106 121 0
-109 121 0
-110 121 0
-111 121 0
-112 121 0
106 109 110 111 112 -121 0
118 -121 -122 0
-118 121 -122 0
-118 -121 122 0
118 121 122 0
-14 122 0
106 123 0
109 123 0
110 123 0
111 123 0
112 123 0
-124 0
-118 123 -125 0
118 -123 -125 0
125 -123 -118 0
118 123 125 0
-15 -125 0
109 -126 -127 0
126 -109 -127 0
-109 -126 127 0
109 126 127 0
-12 -127 0
126 -110 -128 0
110 -126 -128 0
128 -126 -110 0
128 126 110 0
-13 128 0
-109 129 0
-110 129 0
-111 129 0
-112 129 0
109 110 111 112 -129 0
126 -129 -130 0
-126 129 -130 0
-126 -129 130 0
126 129 130 0
-14 130 0
109 131 0
110 131 0
111 131 0
112 131 0
-132 0
-126 131 -133 0
126 -131 -133 0
133 -131 -126 0
126 131 133 0
-15 -133 0
110 -134 -135 0
134 -110 -135 0
-110 -134 135 0
110 134 135 0
-12 -135 0
134 -111 -136 0
111 -134 -136 0
136 -134 -111 0
136 134 111 0
-13 136 0
134 -129 -137 0
-134 129 -137 0
-134 -129 137 0
134 129 137 0
-14 137 0
-134 131 -138 0
134 -131 -138 0
138 -131 -134 0
134 131 138 0
-15 -138 0
111 -139 -140 0
139 -111 -140 0
-111 -139 140 0
111 139 140 0
-12 -140 0
139 -112 -141 0
112 -139 -141 0
141 -139 -112 0
141 139 112 0
-13 141 0
139 -129 -142 0
-139 129 -142 0
-139 -129 142 0
139 129 142 0
-14 142 0
-139 131 -143 0
139 -131 -143 0
143 -131 -139 0
139 131 143 0
-15 -143 0
112 -144 -145 0
144 -112 -145 0
-112 -144 145 0
112 144 145 0
-12 -145 0
-109 144 -146 0
109 -144 -146 0
146 -144 -109 0
146 144 109 0
-13 146 0
144 -129 -147 0
-144 129 -147 0
-144 -129 147 0
144 129 147 0
-14 147 0
-144 131 -148 0
144 -131 -148 0
148 -131 -144 0
144 131 148 0
-15 -148 0
149 -6 -150 0
6 -149 -150 0
-149 -6 150 0
6 149 150 0
-12 -150 0
6 -151 -152 0
151 -6 -152 0
152 -6 -151 0
152 6 151 0
-13 152 0
-16 153 0
-149 153 0
-151 153 0
-154 153 0
16 149 151 154 -153 0
6 -153 -155 0
-6 153 -155 0
-6 -153 155 0
6 153 155 0
-14 155 0
16 156 0
149 156 0
151 156 0
154 156 0
-157 0
-6 156 -158 0
6 -156 -158 0
158 -156 -6 0
6 156 158 0
-15 -158 0
151 -159 -160 0
159 -151 -160 0
-151 -159 160 0
151 159 160 0
-12 -160 0
159 -154 -161 0
154 -159 -161 0
161 -159 -154 0
161 159 154 0
-13 161 0
-16 162 0
-151 162 0
-154 162 0
16 151 154 -162 0
159 -162 -163 0
-159 162 -163 0
-159 -162 163 0
159 162 163 0
-14 163 0
16 164 0
151 164 0
154 164 0
-16 -151 -154 -164 0
-159 164 -165 0
159 -164 -165 0
165 -164 -159 0
159 164 165 0
-15 -165 0
154 -166 -167 0
166 -154 -167 0
-154 -166 167 0
154 166 167 0
-12 -167 0
-16 166 -168 0
16 -166 -168 0
168 -166 -16 0
168 166 16 0
-13 168 0
-16 169 0
-154 169 0
16 154 -169 0
166 -169 -170 0
-166 169 -170 0
-166 -169 170 0
166 169 170 0
-14 170 0
16 171 0
154 171 0
-16 -154 -171 0
-166 171 -172 0
166 -171 -172 0
172 -171 -166 0
166 171 172 0
-15 -172 0
173 -7 -174 0
7 -173 -174 0
-173 -7 174 0
7 173 174 0
-12 -174 0
7 -175 -176 0
175 -7 -176 0
176 -7 -175 0
176 7 175 0
-13 176 0
-173 177 0
-175 177 0
-178 177 0
-179 177 0
-180 177 0
-181 177 0
182 0
7 -177 -183 0
-7 177 -183 0
-7 -177 183 0
7 177 183 0
-14 183 0
173 184 0
175 184 0
178 184 0
179 184 0
180 184 0
181 184 0
-185 0
-7 184 -186 0
7 -184 -186 0
186 -184 -7 0
7 184 186 0
-15 -186 0
175 -187 -188 0
187 -175 -188 0
-175 -187 188 0
175 187 188 0
-12 -188 0
187 -178 -189 0
178 -187 -189 0
189 -187 -178 0
189 187 178 0
-13 189 0
-175 190 0
-178 190 0
-179 190 0
-180 190 0
-181 190 0
175 178 179 180 181 -190 0
187 -190 -191 0
-187 190 -191 0
-187 -190 191 0
187 190 191 0
-14 191 0
175 192 0
178 192 0
179 192 0
180 192 0
181 192 0
-193 0
-187 192 -194 0
187 -192 -194 0
194 -192 -187 0
187 192 194 0
-15 -194 0
178 -195 -196 0
195 -178 -196 0
-178 -195 196 0
178 195 196 0
-12 -196 0
195 -179 -197 0
179 -195 -197 0
197 -195 -179 0
197 195 179 0
-13 197 0
-178 198 0
-179 198 0
-180 198 0
-181 198 0
178 179 180 181 -198 0
195 -198 -199 0
-195 198 -199 0
-195 -198 199 0
195 198 199 0
-14 199 0
178 200 0
179 200 0
180 200 0
181 200 0
-201 0
-195 200 -202 0
195 -200 -202 0
202 -200 -195 0
195 200 202 0
-15 -202 0
179 -203 -204 0
203 -179 -204 0
-179 -203 204 0
179 203 204 0
-12 -204 0
203 -180 -205 0
180 -203 -205 0
205 -203 -180 0
205 203 180 0
-13 205 0
-179 206 0
-180 206 0
-181 206 0
179 180 181 -206 0
203 -206 -207 0
-203 206 -207 0
-203 -206 207 0
203 206 207 0
-14 207 0
179 208 0
180 208 0
181 208 0
-179 -180 -181 -208 0
-203 208 -209 0
203 -208 -209 0
209 -208 -203 0
203 208 209 0
-15 -209 0
180 -210 -211 0
210 -180 -211 0
-180 -210 211 0
180 210 211 0
-12 -211 0
210 -181 -212 0
181 -210 -212 0
212 -210 -181 0
212 210 181 0
-13 212 0
210 -206 -213 0
-210 206 -213 0
-210 -206 213 0
210 206 213 0
-14 213 0
-210 208 -214 0
210 -208 -214 0
214 -208 -210 0
210 208 214 0
-15 -214 0
181 -215 -216 0
215 -181 -216 0
-181 -215 216 0
181 215 216 0
-12 -216 0
-179 215 -217 0
179 -215 -217 0
217 -215 -179 0
217 215 179 0
-13 217 0
215 -206 -218 0
-215 206 -218 0
-215 -206 218 0
215 206 218 0
-14 218 0
-215 208 -219 0
215 -208 -219 0
219 -208 -215 0
215 208 219 0
-15 -219 0
220 -8 -221 0
8 -220 -221 0
-220 -8 221 0
8 220 221 0
-12 -221 0
8 -222 -223 0
222 -8 -223 0
223 -8 -222 0
223 8 222 0
-13 223 0
-16 224 0
-151 224 0
-154 224 0
-220 224 0
-222 224 0
16 151 154 220 222 -224 0
8 -224 -225 0
-8 224 -225 0
-8 -224 225 0
8 224 225 0
-14 225 0
16 226 0
151 226 0
154 226 0
220 226 0
222 226 0
-227 0
-8 226 -228 0
8 -226 -228 0
228 -226 -8 0
8 226 228 0
-15 -228 0
222 -229 -230 0
229 -222 -230 0
-222 -229 230 0
222 229 230 0
-12 -230 0
-151 229 -231 0
151 -229 -231 0
231 -229 -151 0
231 229 151 0
-13 231 0
-16 232 0
-151 232 0
-154 232 0
-222 232 0
16 151 154 222 -232 0
229 -232 -233 0
-229 232 -233 0
-229 -232 233 0
229 232 233 0
-14 233 0
16 234 0
151 234 0
154 234 0
222 234 0
-235 0
-229 234 -236 0
229 -234 -236 0
236 -234 -229 0
229 234 236 0
-15 -236 0
237 -9 -238 0
9 -237 -238 0
-237 -9 238 0
9 237 238 0
-12 -238 0
9 -239 -240 0
239 -9 -240 0
240 -9 -239 0
240 9 239 0
-13 240 0
-178 241 0
-179 241 0
-180 241 0
-181 241 0
-237 241 0
-239 241 0
242 0
9 -241 -243 0
-9 241 -243 0
-9 -241 243 0
9 241 243 0
-14 243 0
178 244 0
179 244 0
180 244 0
181 244 0
237 244 0
239 244 0
-245 0
-9 244 -246 0
9 -244 -246 0
246 -244 -9 0
9 244 246 0
-15 -246 0
239 -247 -248 0
247 -239 -248 0
-239 -247 248 0
239 247 248 0
-12 -248 0
-178 247 -249 0
178 -247 -249 0
249 -247 -178 0
249 247 178 0
-13 249 0
-178 250 0
-179 250 0
-180 250 0
-181 250 0
-239 250 0
178 179 180 181 239 -250 0
247 -250 -251 0
-247 250 -251 0
-247 -250 251 0
247 250 251 0
-14 251 0
178 252 0
179 252 0
180 252 0
181 252 0
239 252 0
-253 0
-247 252 -254 0
247 -252 -254 0
254 -252 -247 0
247 252 254 0
-15 -254 0
255 -10 -256 0
10 -255 -256 0
-255 -10 256 0
10 255 256 0
-12 -256 0
10 -257 -258 0
257 -10 -258 0
258 -10 -257 0
258 10 257 0
-13 258 0
-109 259 0
-110 259 0
-111 259 0
-112 259 0
-255 259 0
-257 259 0
-260 259 0
-261 259 0
262 0
10 -259 -263 0
-10 259 -263 0
-10 -259 263 0
10 259 263 0
-14 263 0
109 264 0
110 264 0
111 264 0
112 264 0
255 264 0
257 264 0
260 264 0
261 264 0
-265 0
-10 264 -266 0
10 -264 -266 0
266 -264 -10 0
10 264 266 0
-15 -266 0
257 -267 -268 0
267 -257 -268 0
-257 -267 268 0
257 267 268 0
-12 -268 0
267 -260 -269 0
260 -267 -269 0
269 -267 -260 0
269 267 260 0
-13 269 0
-109 270 0
-110 270 0
-111 270 0
-112 270 0
-257 270 0
-260 270 0
-261 270 0
271 0
267 -270 -272 0
-267 270 -272 0
-267 -270 272 0
267 270 272 0
-14 272 0
109 273 0
110 273 0
111 273 0
112 273 0
257 273 0
260 273 0
261 273 0
-274 0
-267 273 -275 0
267 -273 -275 0
275 -273 -267 0
267 273 275 0
-15 -275 0
260 -276 -277 0
276 -260 -277 0
-260 -276 277 0
260 276 277 0
-12 -277 0
276 -261 -278 0
261 -276 -278 0
278 -276 -261 0
278 276 261 0
-13 278 0
-109 279 0
-110 279 0
-111 279 0
-112 279 0
-260 279 0
-261 279 0
280 0
276 -279 -281 0
-276 279 -281 0
-276 -279 281 0
276 279 281 0
-14 281 0
109 282 0
110 282 0
111 282 0
112 282 0
260 282 0
261 282 0
-283 0
-276 282 -284 0
276 -282 -284 0
284 -282 -276 0
276 282 284 0
-15 -284 0
261 -285 -286 0
285 -261 -286 0
-261 -285 286 0
261 285 286 0
-12 -286 0
-110 285 -287 0
110 -285 -287 0
287 -285 -110 0
287 285 110 0
-13 287 0
-109 288 0
-110 288 0
-111 288 0
-112 288 0
-261 288 0
109 110 111 112 261 -288 0
285 -288 -289 0
-285 288 -289 0
-285 -288 289 0
285 288 289 0
-14 289 0
109 290 0
110 290 0
111 290 0
112 290 0
261 290 0
-291 0
-285 290 -292 0
285 -290 -292 0
292 -290 -285 0
285 290 292 0
-15 -292 0
293 -11 -294 0
11 -293 -294 0
-293 -11 294 0
11 293 294 0
-12 -294 0
11 -295 -296 0
295 -11 -296 0
296 -11 -295 0
296 11 295 0
-13 296 0
-21 297 0
-24 297 0
-293 297 0
-295 297 0
-298 297 0
21 24 293 295 298 -297 0
11 -297 -299 0
-11 297 -299 0
-11 -297 299 0
11 297 299 0
-14 299 0
21 300 0
24 300 0
293 300 0
295 300 0
298 300 0
-301 0
-11 300 -302 0
11 -300 -302 0
302 -300 -11 0
11 300 302 0
-15 -302 0
295 -303 -304 0
303 -295 -304 0
-295 -303 304 0
295 303 304 0
-12 -304 0
303 -298 -305 0
298 -303 -305 0
305 -303 -298 0
305 303 298 0
-13 305 0
-21 306 0
-24 306 0
-295 306 0
-298 306 0
21 24 295 298 -306 0
303 -306 -307 0
-303 306 -307 0
-303 -306 307 0
303 306 307 0
-14 307 0
21 308 0
24 308 0
295 308 0
298 308 0
-309 0
-303 308 -310 0
303 -308 -310 0
310 -308 -303 0
303 308 310 0
-15 -310 0
298 -311 -312 0
311 -298 -312 0
-298 -311 312 0
298 311 312 0
-12 -312 0
-24 311 -313 0
24 -311 -313 0
313 -311 -24 0
313 311 24 0
-13 313 0
-21 314 0
-24 314 0
-298 314 0
21 24 298 -314 0
311 -314 -315 0
-311 314 -315 0
-311 -314 315 0
311 314 315 0
-14 315 0
21 316 0
24 316 0
298 316 0
-21 -24 -298 -316 0
-311 316 -317 0
311 -316 -317 0
317 -316 -311 0
311 316 317 0
-15 -317 0
-16 318 -319 0
16 -318 -319 0
-16 -318 319 0
16 318 319 0
-319 0
-19 320 -321 0
19 -320 -321 0
-19 -320 321 0
19 320 321 0
-321 0
-21 322 -323 0
21 -322 -323 0
-21 -322 323 0
21 322 323 0
-323 0
-24 324 -325 0
24 -324 -325 0
-24 -324 325 0
24 324 325 0
-325 0
-40 326 -327 0
40 -326 -327 0
-40 -326 327 0
40 326 327 0
-327 0
-42 328 -329 0
42 -328 -329 0
-42 -328 329 0
42 328 329 0
-329 0
-57 330 -331 0
57 -330 -331 0
-57 -330 331 0
57 330 331 0
-331 0
-59 332 -333 0
59 -332 -333 0
-59 -332 333 0
59 332 333 0
-333 0
-62 334 -335 0
62 -334 -335 0
-62 -334 335 0
62 334 335 0
-335 0
-63 336 -337 0
63 -336 -337 0
-63 -336 337 0
63 336 337 0
-337 0
-64 338 -339 0
64 -338 -339 0
-64 -338 339 0
64 338 339 0
-339 0
-65 340 -341 0
65 -340 -341 0
-65 -340 341 0
65 340 341 0
-341 0
-104 342 -343 0
104 -342 -343 0
-104 -342 343 0
104 342 343 0
-343 0
-106 344 -345 0
106 -344 -345 0
-106 -344 345 0
106 344 345 0
-345 0
-109 346 -347 0
109 -346 -347 0
-109 -346 347 0
109 346 347 0
-347 0
-110 348 -349 0
110 -348 -349 0
-110 -348 349 0
110 348 349 0
-349 0
-111 350 -351 0
111 -350 -351 0
-111 -350 351 0
111 350 351 0
-351 0
-112 352 -353 0
112 -352 -353 0
-112 -352 353 0
112 352 353 0
-353 0
-149 354 -355 0
149 -354 -355 0
-149 -354 355 0
149 354 355 0
-355 0
-151 356 -357 0
151 -356 -357 0
-151 -356 357 0
151 356 357 0
-357 0
-154 358 -359 0
154 -358 -359 0
-154 -358 359 0
154 358 359 0
-359 0
-173 360 -361 0
173 -360 -361 0
-173 -360 361 0
173 360 361 0
-361 0
-175 362 -363 0
175 -362 -363 0
-175 -362 363 0
175 362 363 0
-363 0
-178 364 -365 0
178 -364 -365 0
-178 -364 365 0
178 364 365 0
-365 0
-179 366 -367 0
179 -366 -367 0
-179 -366 367 0
179 366 367 0
-367 0
-180 368 -369 0
180 -368 -369 0
-180 -368 369 0
180 368 369 0
-369 0
-181 370 -371 0
181 -370 -371 0
-181 -370 371 0
181 370 371 0
-371 0
-220 372 -373 0
220 -372 -373 0
-220 -372 373 0
220 372 373 0
-373 0
-222 374 -375 0
222 -374 -375 0
-222 -374 375 0
222 374 375 0
-375 0
-237 376 -377 0
237 -376 -377 0
-237 -376 377 0
237 376 377 0
-377 0
-239 378 -379 0
239 -378 -379 0
-239 -378 379 0
239 378 379 0
-379 0
-255 380 -381 0
255 -380 -381 0
-255 -380 381 0
255 380 381 0
-381 0
-257 382 -383 0
257 -382 -383 0
-257 -382 383 0
257 382 383 0
-383 0
-260 384 -385 0
260 -384 -385 0
-260 -384 385 0
260 384 385 0
-385 0
-261 386 -387 0
261 -386 -387 0
-261 -386 387 0
261 386 387 0
-387 0
-293 388 -389 0
293 -388 -389 0
-293 -388 389 0
293 388 389 0
-389 0
-295 390 -391 0
295 -390 -391 0
-295 -390 391 0
295 390 391 0
-391 0
-298 392 -393 0
298 -392 -393 0
-298 -392 393 0
298 392 393 0
-393 0
-318 0
320 0
322 0
-324 0
-326 0
328 0
-330 0
-332 0
334 0
-336 0
-338 0
340 0
342 0
-344 0
-346 0
-348 0
-350 0
352 0
-354 0
-356 0
358 0
360 0
-362 0
-364 0
366 0
-368 0
370 0
372 0
374 0
-376 0
378 0
-380 0
-382 0
-384 0
386 0
388 0
390 0
-392 0
